(declare-sort fun1 0)
(declare-datatype Nat ((zero) (succ (p Nat))))
(declare-datatype list ((nil) (cons (head Nat) (tail list))))
(declare-fun lam (Nat) fun1)
(declare-fun lam2 (Nat) fun1)
(declare-fun apply1 (fun1 Nat) Bool)
(define-fun-rec
  plus
  ((x Nat) (y Nat)) Nat
  (match x
    ((zero y)
     ((succ z) (succ (plus z y))))))
(define-fun-rec
  lt
  ((x Nat) (y Nat)) Bool
  (match y
    ((zero false)
     ((succ z)
      (match x
        ((zero true)
         ((succ n) (lt n z))))))))
(define-fun-rec
  leq
  ((x Nat) (y Nat)) Bool
  (match x
    ((zero true)
     ((succ z)
      (match y
        ((zero false)
         ((succ x2) (leq z x2))))))))
(define-fun
  gt
  ((x Nat) (y Nat)) Bool (lt y x))
(define-fun-rec
  filter
  ((q fun1) (x list)) list
  (match x
    ((nil nil)
     ((cons y xs)
      (ite (apply1 q y) (cons y (filter q xs)) (filter q xs))))))
(define-fun-rec
  count
  ((x Nat) (y list)) Nat
  (match y
    ((nil zero)
     ((cons z ys)
      (ite (= x z) (plus (succ zero) (count x ys)) (count x ys))))))
(define-fun-rec
  ++
  ((x list) (y list)) list
  (match x
    ((nil y)
     ((cons z xs) (cons z (++ xs y))))))
(define-fun-rec
  qsort
  ((x list)) list
  (match x
    ((nil nil)
     ((cons y xs)
      (++ (qsort (filter (lam y) xs))
        (++ (cons y nil) (qsort (filter (lam2 y) xs))))))))
(assert
  (forall ((x Nat) (y Nat) (z Nat))
    (= (plus x (plus y z)) (plus (plus x y) z))))
(assert (forall ((x Nat) (y Nat)) (= (plus x y) (plus y x))))
(assert (forall ((x Nat)) (= (plus x zero) x)))
(assert (forall ((x Nat)) (= (plus zero x) x)))
(assert
  (forall ((y Nat) (z Nat)) (= (apply1 (lam y) z) (leq z y))))
(assert
  (forall ((y Nat) (x2 Nat)) (= (apply1 (lam2 y) x2) (gt x2 y))))
(assert
  (not
    (forall ((x Nat) (xs list))
      (= (count x (qsort xs)) (count x xs)))))
(check-sat)
